c generated by sgen1
c Command: ./sgen1 -unsat -n 25 
p cnf 25 60
-2 -3 -4 0
-1 -3 -4 0
-1 -2 -4 0
-1 -2 -3 0
-6 -7 -8 0
-5 -7 -8 0
-5 -6 -8 0
-5 -6 -7 0
-10 -11 -12 0
-9 -11 -12 0
-9 -10 -12 0
-9 -10 -11 0
-14 -15 -16 0
-13 -15 -16 0
-13 -14 -16 0
-13 -14 -15 0
-18 -19 -20 0
-17 -19 -20 0
-17 -18 -20 0
-17 -18 -19 0
-21 -22 -23  0
-21 -22 -24  0
-21 -22 -25  0
-21 -23 -24  0
-21 -23 -25  0
-21 -24 -25  0
-22 -23 -24  0
-22 -23 -25  0
-22 -24 -25  0
-23 -24 -25  0
4 24 12 0
15 24 12 0
15 4 12 0
15 4 24 0
11 8 21 0
13 8 21 0
13 11 21 0
13 11 8 0
22 9 7 0
20 9 7 0
20 22 7 0
20 22 9 0
16 18 3 0
25 18 3 0
25 16 3 0
25 16 18 0
2 6 10 0
17 6 10 0
17 2 10 0
17 2 6 0
19 1 23  0
19 1 14  0
19 1 5  0
19 23 14  0
19 23 5  0
19 14 5  0
1 23 14  0
1 23 5  0
1 14 5  0
23 14 5  0
